Academic license - for non-commercial use only
Optimize a model with 76 rows, 342 columns and 1672 nonzeros
Variable types: 0 continuous, 342 integer (342 binary)
Coefficient statistics:
  Matrix range     [1e+00, 1e+00]
  Objective range  [1e+01, 5e+02]
  Bounds range     [1e+00, 1e+00]
  RHS range        [1e+00, 1e+00]
Found heuristic solution: objective 1129.7669000
Presolve removed 31 rows and 0 columns
Presolve time: 0.01s
Presolved: 45 rows, 342 columns, 1360 nonzeros
Variable types: 0 continuous, 342 integer (342 binary)

Root relaxation: objective 1.549247e+03, 124 iterations, 0.00 seconds

    Nodes    |    Current Node    |     Objective Bounds      |     Work
 Expl Unexpl |  Obj  Depth IntInf | Incumbent    BestBd   Gap | It/Node Time

     0     0 1549.24736    0   18 1129.76690 1549.24736  37.1%     -    0s
H    0     0                    1508.9270000 1549.24736  2.67%     -    0s
H    0     0                    1516.8222000 1549.24736  2.14%     -    0s
H    0     0                    1519.3706900 1549.24736  1.97%     -    0s
H    0     0                    1529.7824000 1549.24736  1.27%     -    0s
H    0     0                    1530.4740800 1549.24736  1.23%     -    0s
H    0     0                    1540.3105800 1549.24736  0.58%     -    0s
     0     0 1543.26409    0   13 1540.31058 1543.26409  0.19%     -    0s
     0     0 1543.26409    0   18 1540.31058 1543.26409  0.19%     -    0s
     0     0 1541.94799    0   18 1540.31058 1541.94799  0.11%     -    0s
     0     0 1540.37239    0   14 1540.31058 1540.37239  0.00%     -    0s

Cutting planes:
  Gomory: 3
  Clique: 4
  Zero half: 4

Explored 1 nodes (227 simplex iterations) in 0.04 seconds
Thread count was 8 (of 8 available processors)

Solution count 7: 1540.31 1530.47 1529.78 ... 1129.77

Optimal solution found (tolerance 1.00e-04)
Best objective 1.540310580000e+03, best bound 1.540372390000e+03, gap 0.0040%
Obj: 1540.31
